Instance Name : rc104
Date : 2022-07-18
Solution
Route 1 : 90 65 99 97 75 58 77
Route 2 : 69 98 53 47 17 16 13 10 12
Route 3 : 66 20 49 19 23 21 48 18 25 24 83
Route 4 : 82 14 15 11 9 87 59 74 86 57 52
Route 5 : 68 70 1 3 5 45 8 46 4 2 100
Route 6 : 81 42 44 39 38 37 35 36 40 43 61
Route 7 : 91 50 33 32 30 28 26 27 29 31 34
Route 8 : 80 92 95 62 67 94 93 71 72 41 54 96
Route 9 : 88 60 78 73 79 7 6 55
Route 10 : 85 63 89 76 84 51 22 64 56
